&CONTROL
    calculation = "scf"
    max_seconds =  8.64000e+04
    outdir      = "."
    prefix      = "basic"
    pseudo_dir  = "."
    tprnfor     = .TRUE.
    tstress     = .TRUE.
    verbosity   = "low"
/

&SYSTEM
    a           =  1.08614e+01
    degauss     =  5.00000e-03
    ecutrho     =  2.00000e+02
    ecutwfc     =  5.00000e+01
    ibrav       = 0
    input_dft   = "pbe"
    nat         = 4
    ntyp        = 1
    occupations = "smearing"
    smearing    = "marzari-vanderbilt"
/

&ELECTRONS
    conv_thr         =  1.00000e-08
    electron_maxstep = 200
    mixing_beta      =  7.00000e-01
    startingpot      = "atomic"
    startingwfc      = "atomic+random"
/

K_POINTS {automatic}
 7  7  7  0 0 0

CELL_PARAMETERS {alat}
  0.500000   0.500000   0.000000
  0.500000   0.000000   0.500000
  0.000000   0.500000   0.500000

ATOMIC_SPECIES
Si     28.08500  Si.pbe-n-kjpaw_psl.1.0.0.UPF

ATOMIC_POSITIONS {crystal}
Si      0.000000   0.000000   0.000000
Si      0.500000   0.500000   0.500000
Si      0.000000   0.500000   0.500000
Si      0.500000   0.000000   0.500000


