#************************************************************************************
#*                   Generated by cif2cell 2.0.0 2020-06-09 17:36                   *
#*  T. Bjorkman, Comp. Phys. Commun. 182, 1183-1186 (2011). Please cite generously. *
#*                                                                                  *
#*                                    None   ()                                     *
#*               Wyckoff, R. W. G., Crystal Structures 1, 7-83 (1963)               *
#************************************************************************************
&CONTROL
	calculation='scf',
	outdir='.',
	prefix='basic',
	pseudo_dir='.',
	verbosity='low',
	tprnfor=.true.,
	tstress=.true.,
/
&SYSTEM
  ibrav = 0
  A =    5.43070
  nat = 2
  ntyp = 1
  ecutwfc=50,
  ecutrho=200,
  input_dft='pbe',
  occupations='smearing',
  smearing='mv',
  degauss=0.005d0,
/
&ELECTRONS
	conv_thr=1d-08,
	mixing_beta=0.7d0,
/
CELL_PARAMETERS {alat}
  0.500000000000000   0.500000000000000   0.000000000000000 
  0.500000000000000   0.000000000000000   0.500000000000000 
  0.000000000000000   0.500000000000000   0.500000000000000 
ATOMIC_SPECIES
  Si   28.08500  Si.pbe-n-kjpaw_psl.1.0.0.UPF
ATOMIC_POSITIONS {crystal}
Si   0.000000000000000   0.000000000000000   0.000000000000000 
Si   0.250000000000000   0.250000000000000   0.250000000000000 
K_POINTS {automatic}
	7 7 7 0 0 0
