&INPUTPH 
  outdir = '.' 
  prefix = 'si' 
  fildyn = 'si.ph.dyn' 
/
