&CONTROL 
  calculation = 'scf' 
  pseudo_dir = '.' 
  tprnfor = .true. 
  tstress = .true. 
  outdir = '.' 
/
&SYSTEM 
  ibrav = 0 
  ecutwfc = 100 
  nat = 1 
  ntyp = 1 
  celldm(1) = 5.4307 
/
&ELECTRONS 
/
&CELL 
/
 ATOMIC_SPECIES 
Si 28.085 Si.pbe-n-kjpaw_psl.1.0.0.UPF
 ATOMIC_POSITIONS {crystal} 
Si 0.0 0.0 0.0
 K_POINTS {automatic} 
7 7 7 0 0 0
 CELL_PARAMETERS {alat} 
0.5 0.5 0.0
0.5 0.0 0.5
0.0 0.5 0.5
