&CONTROL   calculation = 'scf',   outdir = '.',   prefix = 'basic',   pseudo_dir = '.',   verbosity = 'low',   tprnfor = .true.,   tstress=.true./